networks/zoo_44_277/zoo_44_277-lower.txt
Number of groups: 22
Flow 36: {5 6 0} {6 9 0} {9 31 0} 
Flow 41: {1 15 0} {15 37 0} 
Flow 51: {4 3 0} {3 13 0} 
Flow 80: {9 6 0} {6 28 0} 
Flow 85: {6 5 0} {5 8 0} {8 7 0} {7 4 0} {4 2 0} {2 10 0} {10 14 0} {14 36 0} 
Flow 111: {11 22 0} {22 21 0} {21 14 0} {14 13 0} {13 35 0} 
Flow 124: {12 22 0} {22 19 0} {19 18 0} {18 40 0} 
Flow 129: {13 3 0} {3 2 0} {2 24 0} 
Flow 136: {3 10 0} {10 32 0} 
Flow 137: {13 14 0} {14 21 0} {21 22 0} {22 11 0} {11 33 0} 
Flow 139: {3 4 0} {4 1 0} {1 16 0} {16 38 0} 
Flow 142: {10 20 0} {20 42 0} 
Flow 145: {14 10 0} {10 2 0} {2 4 0} {4 26 0} 
Flow 157: {15 1 0} {1 4 0} {4 7 0} {7 8 0} {8 30 0} 
Flow 159: {15 16 0} {16 17 0} {17 18 0} {18 19 0} 
Flow 172: {8 5 0} {5 27 0} 
Flow 180: {17 39 0} 
Flow 203: {18 17 0} {17 20 0} {20 10 0} {10 3 0} {3 25 0} 
Flow 207: {7 29 0} 
Flow 234: {19 20 0} {20 21 0} {21 43 0} 
Flow 248: {20 19 0} {19 22 0} {22 44 0} 
Flow 249: {21 20 0} {20 17 0} {17 16 0} {16 1 0} {1 23 0} 
Time taken running everything: 1 seconds
