networks/zoo_44_277/zoo_44_277-lower.sol
<?xml version = "1.0" encoding="UTF-8" standalone="yes"?>
<CPLEXSolution version="1.2">
 <header
   problemName="networks/zoo_44_277/zoo_44_277-lower.lp"
   solutionName="incumbent"
   solutionIndex="-1"
   objectiveValue="20"
   solutionTypeValue="3"
   solutionTypeString="primal"
   solutionStatusValue="101"
   solutionStatusString="integer optimal solution"
   solutionMethodString="mip"
   primalFeasible="1"
   dualFeasible="1"
   MIPNodes="0"
   MIPIterations="0"
   writeLevel="3"/>
 <quality
   epInt="1.0000000000000001e-05"
   epRHS="9.9999999999999995e-07"
   maxIntInfeas="0"
   maxPrimalInfeas="0"
   maxX="1"
   maxSlack="1"/>
 <variables>
  <variable name="Y(1,3)" index="2" value="1"/>
  <variable name="Y(2,4)" index="45" value="1"/>
  <variable name="Y(3,6)" index="89" value="1"/>
  <variable name="Y(4,7)" index="132" value="1"/>
  <variable name="Y(5,10)" index="177" value="1"/>
  <variable name="Y(6,13)" index="222" value="1"/>
  <variable name="Y(7,14)" index="265" value="1"/>
  <variable name="Y(8,16)" index="309" value="1"/>
  <variable name="Y(9,18)" index="353" value="1"/>
  <variable name="Y(10,20)" index="397" value="1"/>
  <variable name="Y(11,21)" index="440" value="1"/>
  <variable name="Y(12,22)" index="483" value="1"/>
  <variable name="Y(14,1)" index="546" value="1"/>
  <variable name="Y(15,2)" index="589" value="1"/>
  <variable name="Y(19,8)" index="763" value="1"/>
  <variable name="Y(21,11)" index="850" value="1"/>
  <variable name="Y(32,5)" index="1306" value="1"/>
  <variable name="Y(36,9)" index="1478" value="1"/>
  <variable name="Y(41,15)" index="1694" value="1"/>
  <variable name="Y(43,17)" index="1780" value="1"/>
  <variable name="X(1,4,1)" index="11634" value="1"/>
  <variable name="X(1,15,41)" index="11951" value="1"/>
  <variable name="X(1,16,8)" index="12195" value="1"/>
  <variable name="X(1,23,14)" index="12478" value="1"/>
  <variable name="X(2,4,13)" index="12754" value="1"/>
  <variable name="X(2,10,5)" index="13023" value="1"/>
  <variable name="X(2,24,15)" index="13310" value="1"/>
  <variable name="X(3,2,15)" index="13587" value="1"/>
  <variable name="X(3,4,14)" index="13863" value="1"/>
  <variable name="X(3,10,20)" index="14146" value="1"/>
  <variable name="X(3,13,6)" index="14409" value="1"/>
  <variable name="X(3,25,1)" index="14681" value="1"/>
  <variable name="X(4,1,14)" index="14971" value="1"/>
  <variable name="X(4,2,5)" index="15239" value="1"/>
  <variable name="X(4,3,1)" index="15512" value="1"/>
  <variable name="X(4,7,3)" index="15791" value="1"/>
  <variable name="X(4,26,2)" index="16067" value="1"/>
  <variable name="X(5,6,3)" index="16345" value="1"/>
  <variable name="X(5,8,48)" index="16667" value="1"/>
  <variable name="X(5,27,32)" index="16928" value="1"/>
  <variable name="X(6,5,77)" index="17250" value="1"/>
  <variable name="X(6,9,36)" index="17486" value="1"/>
  <variable name="X(6,28,3)" index="17730" value="1"/>
  <variable name="X(7,4,48)" index="18052" value="1"/>
  <variable name="X(7,8,3)" index="18284" value="1"/>
  <variable name="X(7,29,4)" index="18562" value="1"/>
  <variable name="X(8,5,3)" index="18838" value="1"/>
  <variable name="X(8,7,48)" index="19160" value="1"/>
  <variable name="X(8,30,19)" index="19408" value="1"/>
  <variable name="X(9,6,77)" index="19743" value="1"/>
  <variable name="X(9,31,36)" index="19979" value="1"/>
  <variable name="X(10,2,91)" index="20311" value="1"/>
  <variable name="X(10,3,93)" index="20590" value="1"/>
  <variable name="X(10,14,7)" index="20781" value="1"/>
  <variable name="X(10,20,25)" index="21076" value="1"/>
  <variable name="X(10,32,5)" index="21333" value="1"/>
  <variable name="X(11,22,108)" index="21713" value="1"/>
  <variable name="X(11,33,21)" index="21903" value="1"/>
  <variable name="X(12,22,117)" index="22276" value="1"/>
  <variable name="X(13,3,128)" index="22564" value="1"/>
  <variable name="X(13,14,21)" index="22734" value="1"/>
  <variable name="X(13,35,6)" index="22996" value="1"/>
  <variable name="X(14,10,145)" index="23412" value="1"/>
  <variable name="X(14,13,111)" index="23655" value="1"/>
  <variable name="X(14,21,21)" index="23842" value="1"/>
  <variable name="X(14,36,7)" index="24105" value="1"/>
  <variable name="X(15,1,150)" index="24525" value="1"/>
  <variable name="X(15,16,159)" index="24811" value="1"/>
  <variable name="X(15,37,41)" index="24970" value="1"/>
  <variable name="X(16,1,117)" index="25323" value="1"/>
  <variable name="X(16,17,9)" index="25492" value="1"/>
  <variable name="X(16,38,8)" index="25768" value="1"/>
  <variable name="X(17,16,102)" index="26139" value="1"/>
  <variable name="X(17,18,9)" index="26323" value="1"/>
  <variable name="X(17,20,10)" index="26601" value="1"/>
  <variable name="X(17,39,43)" index="26911" value="1"/>
  <variable name="X(18,17,117)" index="27262" value="1"/>
  <variable name="X(18,19,12)" index="27434" value="1"/>
  <variable name="X(18,40,9)" index="27708" value="1"/>
  <variable name="X(19,18,113)" index="28089" value="1"/>
  <variable name="X(19,20,108)" index="28361" value="1"/>
  <variable name="X(19,22,12)" index="28542" value="1"/>
  <variable name="X(20,10,108)" index="28915" value="1"/>
  <variable name="X(20,17,25)" index="29109" value="1"/>
  <variable name="X(20,19,38)" index="29399" value="1"/>
  <variable name="X(20,21,11)" index="29649" value="1"/>
  <variable name="X(20,42,10)" index="29925" value="1"/>
  <variable name="X(21,14,111)" index="30303" value="1"/>
  <variable name="X(21,20,249)" index="30718" value="1"/>
  <variable name="X(21,22,21)" index="30767" value="1"/>
  <variable name="X(21,43,11)" index="31034" value="1"/>
  <variable name="X(22,11,21)" index="31321" value="1"/>
  <variable name="X(22,19,108)" index="31685" value="1"/>
  <variable name="X(22,21,111)" index="31965" value="1"/>
  <variable name="X(22,44,12)" index="32143" value="1"/>
 </variables>
</CPLEXSolution>
